37 1000
9 195
9 140
11 197
8 157
11 140
8 195
6 126
11 155
10 197
2 150
6 182
9 124
3 182
7 163
6 140
4 182
5 155
7 126
5 105
7 169
4 105
4 161
2 163
10 140
4 169
10 150
7 154
9 134
8 168
9 157
4 134
10 168
11 161
11 154
7 124
11 19
6 182
